(set-logic QF_LRA)
(declare-fun T1 () Real )
(declare-fun T2 () Real )
(declare-fun T3 () Real )
(declare-fun T4 () Real )
(declare-fun T5 () Real )
(declare-fun T6 () Real )
(declare-fun T7 () Real )
(declare-fun T8 () Real )
(declare-fun T9 () Real )
(declare-fun T10 () Real )
(declare-fun Z () Real )
(declare-fun k () Real )
(assert (let
(( $goal (>= Z k) ))
(let
((
$phi ( and 
(or ( <= ( + T1 64 ) T2 ) ( <= ( + T2 14 ) T1 ) )
(or ( <= ( + T1 130 )  ( + T2 14 ) ) ( <= ( + T2 37 )( + T1 64 ) ) )
(or ( <= ( + T1 195 )  ( + T2 37 ) ) ( <= ( + T2 110 )( + T1 130 ) ) )
(or ( <= ( + T1 228 )  ( + T2 110 ) ) ( <= ( + T2 207 )( + T1 195 ) ) )
(or ( <= ( + T1 244 )  ( + T2 207 ) ) ( <= ( + T2 255 )( + T1 228 ) ) )
(or ( <= ( + T1 330 )  ( + T2 255 ) ) ( <= ( + T2 353 )( + T1 244 ) ) )
(or ( <= ( + T1 415 )  ( + T2 353 ) ) ( <= ( + T2 404 )( + T1 330 ) ) )
(or ( <= ( + T1 470 )  ( + T2 404 ) ) ( <= ( + T2 496 )( + T1 415 ) ) )
(or ( <= ( + T1 64 ) T3 ) ( <= ( + T3 9 ) T1 ) )
(or ( <= ( + T1 130 )  ( + T3 9 ) ) ( <= ( + T3 68 )( + T1 64 ) ) )
(or ( <= ( + T1 195 )  ( + T3 68 ) ) ( <= ( + T3 147 )( + T1 130 ) ) )
(or ( <= ( + T1 228 )  ( + T3 147 ) ) ( <= ( + T3 208 )( + T1 195 ) ) )
(or ( <= ( + T1 244 )  ( + T3 208 ) ) ( <= ( + T3 210 )( + T1 228 ) ) )
(or ( <= ( + T1 330 )  ( + T3 210 ) ) ( <= ( + T3 232 )( + T1 244 ) ) )
(or ( <= ( + T1 415 )  ( + T3 232 ) ) ( <= ( + T3 293 )( + T1 330 ) ) )
(or ( <= ( + T1 470 )  ( + T3 293 ) ) ( <= ( + T3 306 )( + T1 415 ) ) )
(or ( <= ( + T1 64 ) T4 ) ( <= ( + T4 20 ) T1 ) )
(or ( <= ( + T1 130 )  ( + T4 20 ) ) ( <= ( + T4 23 )( + T1 64 ) ) )
(or ( <= ( + T1 195 )  ( + T4 23 ) ) ( <= ( + T4 104 )( + T1 130 ) ) )
(or ( <= ( + T1 228 )  ( + T4 104 ) ) ( <= ( + T4 200 )( + T1 195 ) ) )
(or ( <= ( + T1 244 )  ( + T4 200 ) ) ( <= ( + T4 280 )( + T1 228 ) ) )
(or ( <= ( + T1 330 )  ( + T4 280 ) ) ( <= ( + T4 304 )( + T1 244 ) ) )
(or ( <= ( + T1 415 )  ( + T4 304 ) ) ( <= ( + T4 385 )( + T1 330 ) ) )
(or ( <= ( + T1 470 )  ( + T4 385 ) ) ( <= ( + T4 429 )( + T1 415 ) ) )
(or ( <= ( + T1 64 ) T5 ) ( <= ( + T5 89 ) T1 ) )
(or ( <= ( + T1 130 )  ( + T5 89 ) ) ( <= ( + T5 134 )( + T1 64 ) ) )
(or ( <= ( + T1 195 )  ( + T5 134 ) ) ( <= ( + T5 210 )( + T1 130 ) ) )
(or ( <= ( + T1 228 )  ( + T5 210 ) ) ( <= ( + T5 214 )( + T1 195 ) ) )
(or ( <= ( + T1 244 )  ( + T5 214 ) ) ( <= ( + T5 296 )( + T1 228 ) ) )
(or ( <= ( + T1 330 )  ( + T5 296 ) ) ( <= ( + T5 309 )( + T1 244 ) ) )
(or ( <= ( + T1 415 )  ( + T5 309 ) ) ( <= ( + T5 367 )( + T1 330 ) ) )
(or ( <= ( + T1 470 )  ( + T5 367 ) ) ( <= ( + T5 414 )( + T1 415 ) ) )
(or ( <= ( + T1 64 ) T6 ) ( <= ( + T6 35 ) T1 ) )
(or ( <= ( + T1 130 )  ( + T6 35 ) ) ( <= ( + T6 117 )( + T1 64 ) ) )
(or ( <= ( + T1 195 )  ( + T6 117 ) ) ( <= ( + T6 212 )( + T1 130 ) ) )
(or ( <= ( + T1 228 )  ( + T6 212 ) ) ( <= ( + T6 246 )( + T1 195 ) ) )
(or ( <= ( + T1 244 )  ( + T6 246 ) ) ( <= ( + T6 325 )( + T1 228 ) ) )
(or ( <= ( + T1 330 )  ( + T6 325 ) ) ( <= ( + T6 370 )( + T1 244 ) ) )
(or ( <= ( + T1 415 )  ( + T6 370 ) ) ( <= ( + T6 396 )( + T1 330 ) ) )
(or ( <= ( + T1 470 )  ( + T6 396 ) ) ( <= ( + T6 484 )( + T1 415 ) ) )
(or ( <= ( + T1 64 ) T7 ) ( <= ( + T7 55 ) T1 ) )
(or ( <= ( + T1 130 )  ( + T7 55 ) ) ( <= ( + T7 59 )( + T1 64 ) ) )
(or ( <= ( + T1 195 )  ( + T7 59 ) ) ( <= ( + T7 159 )( + T1 130 ) ) )
(or ( <= ( + T1 228 )  ( + T7 159 ) ) ( <= ( + T7 216 )( + T1 195 ) ) )
(or ( <= ( + T1 244 )  ( + T7 216 ) ) ( <= ( + T7 293 )( + T1 228 ) ) )
(or ( <= ( + T1 330 )  ( + T7 293 ) ) ( <= ( + T7 353 )( + T1 244 ) ) )
(or ( <= ( + T1 415 )  ( + T7 353 ) ) ( <= ( + T7 374 )( + T1 330 ) ) )
(or ( <= ( + T1 470 )  ( + T7 374 ) ) ( <= ( + T7 470 )( + T1 415 ) ) )
(or ( <= ( + T1 64 ) T8 ) ( <= ( + T8 14 ) T1 ) )
(or ( <= ( + T1 130 )  ( + T8 14 ) ) ( <= ( + T8 15 )( + T1 64 ) ) )
(or ( <= ( + T1 195 )  ( + T8 15 ) ) ( <= ( + T8 106 )( + T1 130 ) ) )
(or ( <= ( + T1 228 )  ( + T8 106 ) ) ( <= ( + T8 152 )( + T1 195 ) ) )
(or ( <= ( + T1 244 )  ( + T8 152 ) ) ( <= ( + T8 228 )( + T1 228 ) ) )
(or ( <= ( + T1 330 )  ( + T8 228 ) ) ( <= ( + T8 299 )( + T1 244 ) ) )
(or ( <= ( + T1 415 )  ( + T8 299 ) ) ( <= ( + T8 388 )( + T1 330 ) ) )
(or ( <= ( + T1 470 )  ( + T8 388 ) ) ( <= ( + T8 453 )( + T1 415 ) ) )
(or ( <= ( + T1 64 ) T9 ) ( <= ( + T9 67 ) T1 ) )
(or ( <= ( + T1 130 )  ( + T9 67 ) ) ( <= ( + T9 83 )( + T1 64 ) ) )
(or ( <= ( + T1 195 )  ( + T9 83 ) ) ( <= ( + T9 103 )( + T1 130 ) ) )
(or ( <= ( + T1 228 )  ( + T9 103 ) ) ( <= ( + T9 151 )( + T1 195 ) ) )
(or ( <= ( + T1 244 )  ( + T9 151 ) ) ( <= ( + T9 179 )( + T1 228 ) ) )
(or ( <= ( + T1 330 )  ( + T9 179 ) ) ( <= ( + T9 209 )( + T1 244 ) ) )
(or ( <= ( + T1 415 )  ( + T9 209 ) ) ( <= ( + T9 256 )( + T1 330 ) ) )
(or ( <= ( + T1 470 )  ( + T9 256 ) ) ( <= ( + T9 271 )( + T1 415 ) ) )
(or ( <= ( + T1 64 ) T10 ) ( <= ( + T10 11 ) T1 ) )
(or ( <= ( + T1 130 )  ( + T10 11 ) ) ( <= ( + T10 52 )( + T1 64 ) ) )
(or ( <= ( + T1 195 )  ( + T10 52 ) ) ( <= ( + T10 152 )( + T1 130 ) ) )
(or ( <= ( + T1 228 )  ( + T10 152 ) ) ( <= ( + T10 242 )( + T1 195 ) ) )
(or ( <= ( + T1 244 )  ( + T10 242 ) ) ( <= ( + T10 280 )( + T1 228 ) ) )
(or ( <= ( + T1 330 )  ( + T10 280 ) ) ( <= ( + T10 305 )( + T1 244 ) ) )
(or ( <= ( + T1 415 )  ( + T10 305 ) ) ( <= ( + T10 334 )( + T1 330 ) ) )
(or ( <= ( + T1 470 )  ( + T10 334 ) ) ( <= ( + T10 426 )( + T1 415 ) ) )
(or ( <= ( + T2 14 ) T3 ) ( <= ( + T3 9 ) T2 ) )
(or ( <= ( + T2 37 )  ( + T3 9 ) ) ( <= ( + T3 68 )( + T2 14 ) ) )
(or ( <= ( + T2 110 )  ( + T3 68 ) ) ( <= ( + T3 147 )( + T2 37 ) ) )
(or ( <= ( + T2 207 )  ( + T3 147 ) ) ( <= ( + T3 208 )( + T2 110 ) ) )
(or ( <= ( + T2 255 )  ( + T3 208 ) ) ( <= ( + T3 210 )( + T2 207 ) ) )
(or ( <= ( + T2 353 )  ( + T3 210 ) ) ( <= ( + T3 232 )( + T2 255 ) ) )
(or ( <= ( + T2 404 )  ( + T3 232 ) ) ( <= ( + T3 293 )( + T2 353 ) ) )
(or ( <= ( + T2 496 )  ( + T3 293 ) ) ( <= ( + T3 306 )( + T2 404 ) ) )
(or ( <= ( + T2 14 ) T4 ) ( <= ( + T4 20 ) T2 ) )
(or ( <= ( + T2 37 )  ( + T4 20 ) ) ( <= ( + T4 23 )( + T2 14 ) ) )
(or ( <= ( + T2 110 )  ( + T4 23 ) ) ( <= ( + T4 104 )( + T2 37 ) ) )
(or ( <= ( + T2 207 )  ( + T4 104 ) ) ( <= ( + T4 200 )( + T2 110 ) ) )
(or ( <= ( + T2 255 )  ( + T4 200 ) ) ( <= ( + T4 280 )( + T2 207 ) ) )
(or ( <= ( + T2 353 )  ( + T4 280 ) ) ( <= ( + T4 304 )( + T2 255 ) ) )
(or ( <= ( + T2 404 )  ( + T4 304 ) ) ( <= ( + T4 385 )( + T2 353 ) ) )
(or ( <= ( + T2 496 )  ( + T4 385 ) ) ( <= ( + T4 429 )( + T2 404 ) ) )
(or ( <= ( + T2 14 ) T5 ) ( <= ( + T5 89 ) T2 ) )
(or ( <= ( + T2 37 )  ( + T5 89 ) ) ( <= ( + T5 134 )( + T2 14 ) ) )
(or ( <= ( + T2 110 )  ( + T5 134 ) ) ( <= ( + T5 210 )( + T2 37 ) ) )
(or ( <= ( + T2 207 )  ( + T5 210 ) ) ( <= ( + T5 214 )( + T2 110 ) ) )
(or ( <= ( + T2 255 )  ( + T5 214 ) ) ( <= ( + T5 296 )( + T2 207 ) ) )
(or ( <= ( + T2 353 )  ( + T5 296 ) ) ( <= ( + T5 309 )( + T2 255 ) ) )
(or ( <= ( + T2 404 )  ( + T5 309 ) ) ( <= ( + T5 367 )( + T2 353 ) ) )
(or ( <= ( + T2 496 )  ( + T5 367 ) ) ( <= ( + T5 414 )( + T2 404 ) ) )
(or ( <= ( + T2 14 ) T6 ) ( <= ( + T6 35 ) T2 ) )
(or ( <= ( + T2 37 )  ( + T6 35 ) ) ( <= ( + T6 117 )( + T2 14 ) ) )
(or ( <= ( + T2 110 )  ( + T6 117 ) ) ( <= ( + T6 212 )( + T2 37 ) ) )
(or ( <= ( + T2 207 )  ( + T6 212 ) ) ( <= ( + T6 246 )( + T2 110 ) ) )
(or ( <= ( + T2 255 )  ( + T6 246 ) ) ( <= ( + T6 325 )( + T2 207 ) ) )
(or ( <= ( + T2 353 )  ( + T6 325 ) ) ( <= ( + T6 370 )( + T2 255 ) ) )
(or ( <= ( + T2 404 )  ( + T6 370 ) ) ( <= ( + T6 396 )( + T2 353 ) ) )
(or ( <= ( + T2 496 )  ( + T6 396 ) ) ( <= ( + T6 484 )( + T2 404 ) ) )
(or ( <= ( + T2 14 ) T7 ) ( <= ( + T7 55 ) T2 ) )
(or ( <= ( + T2 37 )  ( + T7 55 ) ) ( <= ( + T7 59 )( + T2 14 ) ) )
(or ( <= ( + T2 110 )  ( + T7 59 ) ) ( <= ( + T7 159 )( + T2 37 ) ) )
(or ( <= ( + T2 207 )  ( + T7 159 ) ) ( <= ( + T7 216 )( + T2 110 ) ) )
(or ( <= ( + T2 255 )  ( + T7 216 ) ) ( <= ( + T7 293 )( + T2 207 ) ) )
(or ( <= ( + T2 353 )  ( + T7 293 ) ) ( <= ( + T7 353 )( + T2 255 ) ) )
(or ( <= ( + T2 404 )  ( + T7 353 ) ) ( <= ( + T7 374 )( + T2 353 ) ) )
(or ( <= ( + T2 496 )  ( + T7 374 ) ) ( <= ( + T7 470 )( + T2 404 ) ) )
(or ( <= ( + T2 14 ) T8 ) ( <= ( + T8 14 ) T2 ) )
(or ( <= ( + T2 37 )  ( + T8 14 ) ) ( <= ( + T8 15 )( + T2 14 ) ) )
(or ( <= ( + T2 110 )  ( + T8 15 ) ) ( <= ( + T8 106 )( + T2 37 ) ) )
(or ( <= ( + T2 207 )  ( + T8 106 ) ) ( <= ( + T8 152 )( + T2 110 ) ) )
(or ( <= ( + T2 255 )  ( + T8 152 ) ) ( <= ( + T8 228 )( + T2 207 ) ) )
(or ( <= ( + T2 353 )  ( + T8 228 ) ) ( <= ( + T8 299 )( + T2 255 ) ) )
(or ( <= ( + T2 404 )  ( + T8 299 ) ) ( <= ( + T8 388 )( + T2 353 ) ) )
(or ( <= ( + T2 496 )  ( + T8 388 ) ) ( <= ( + T8 453 )( + T2 404 ) ) )
(or ( <= ( + T2 14 ) T9 ) ( <= ( + T9 67 ) T2 ) )
(or ( <= ( + T2 37 )  ( + T9 67 ) ) ( <= ( + T9 83 )( + T2 14 ) ) )
(or ( <= ( + T2 110 )  ( + T9 83 ) ) ( <= ( + T9 103 )( + T2 37 ) ) )
(or ( <= ( + T2 207 )  ( + T9 103 ) ) ( <= ( + T9 151 )( + T2 110 ) ) )
(or ( <= ( + T2 255 )  ( + T9 151 ) ) ( <= ( + T9 179 )( + T2 207 ) ) )
(or ( <= ( + T2 353 )  ( + T9 179 ) ) ( <= ( + T9 209 )( + T2 255 ) ) )
(or ( <= ( + T2 404 )  ( + T9 209 ) ) ( <= ( + T9 256 )( + T2 353 ) ) )
(or ( <= ( + T2 496 )  ( + T9 256 ) ) ( <= ( + T9 271 )( + T2 404 ) ) )
(or ( <= ( + T2 14 ) T10 ) ( <= ( + T10 11 ) T2 ) )
(or ( <= ( + T2 37 )  ( + T10 11 ) ) ( <= ( + T10 52 )( + T2 14 ) ) )
(or ( <= ( + T2 110 )  ( + T10 52 ) ) ( <= ( + T10 152 )( + T2 37 ) ) )
(or ( <= ( + T2 207 )  ( + T10 152 ) ) ( <= ( + T10 242 )( + T2 110 ) ) )
(or ( <= ( + T2 255 )  ( + T10 242 ) ) ( <= ( + T10 280 )( + T2 207 ) ) )
(or ( <= ( + T2 353 )  ( + T10 280 ) ) ( <= ( + T10 305 )( + T2 255 ) ) )
(or ( <= ( + T2 404 )  ( + T10 305 ) ) ( <= ( + T10 334 )( + T2 353 ) ) )
(or ( <= ( + T2 496 )  ( + T10 334 ) ) ( <= ( + T10 426 )( + T2 404 ) ) )
(or ( <= ( + T3 9 ) T4 ) ( <= ( + T4 20 ) T3 ) )
(or ( <= ( + T3 68 )  ( + T4 20 ) ) ( <= ( + T4 23 )( + T3 9 ) ) )
(or ( <= ( + T3 147 )  ( + T4 23 ) ) ( <= ( + T4 104 )( + T3 68 ) ) )
(or ( <= ( + T3 208 )  ( + T4 104 ) ) ( <= ( + T4 200 )( + T3 147 ) ) )
(or ( <= ( + T3 210 )  ( + T4 200 ) ) ( <= ( + T4 280 )( + T3 208 ) ) )
(or ( <= ( + T3 232 )  ( + T4 280 ) ) ( <= ( + T4 304 )( + T3 210 ) ) )
(or ( <= ( + T3 293 )  ( + T4 304 ) ) ( <= ( + T4 385 )( + T3 232 ) ) )
(or ( <= ( + T3 306 )  ( + T4 385 ) ) ( <= ( + T4 429 )( + T3 293 ) ) )
(or ( <= ( + T3 9 ) T5 ) ( <= ( + T5 89 ) T3 ) )
(or ( <= ( + T3 68 )  ( + T5 89 ) ) ( <= ( + T5 134 )( + T3 9 ) ) )
(or ( <= ( + T3 147 )  ( + T5 134 ) ) ( <= ( + T5 210 )( + T3 68 ) ) )
(or ( <= ( + T3 208 )  ( + T5 210 ) ) ( <= ( + T5 214 )( + T3 147 ) ) )
(or ( <= ( + T3 210 )  ( + T5 214 ) ) ( <= ( + T5 296 )( + T3 208 ) ) )
(or ( <= ( + T3 232 )  ( + T5 296 ) ) ( <= ( + T5 309 )( + T3 210 ) ) )
(or ( <= ( + T3 293 )  ( + T5 309 ) ) ( <= ( + T5 367 )( + T3 232 ) ) )
(or ( <= ( + T3 306 )  ( + T5 367 ) ) ( <= ( + T5 414 )( + T3 293 ) ) )
(or ( <= ( + T3 9 ) T6 ) ( <= ( + T6 35 ) T3 ) )
(or ( <= ( + T3 68 )  ( + T6 35 ) ) ( <= ( + T6 117 )( + T3 9 ) ) )
(or ( <= ( + T3 147 )  ( + T6 117 ) ) ( <= ( + T6 212 )( + T3 68 ) ) )
(or ( <= ( + T3 208 )  ( + T6 212 ) ) ( <= ( + T6 246 )( + T3 147 ) ) )
(or ( <= ( + T3 210 )  ( + T6 246 ) ) ( <= ( + T6 325 )( + T3 208 ) ) )
(or ( <= ( + T3 232 )  ( + T6 325 ) ) ( <= ( + T6 370 )( + T3 210 ) ) )
(or ( <= ( + T3 293 )  ( + T6 370 ) ) ( <= ( + T6 396 )( + T3 232 ) ) )
(or ( <= ( + T3 306 )  ( + T6 396 ) ) ( <= ( + T6 484 )( + T3 293 ) ) )
(or ( <= ( + T3 9 ) T7 ) ( <= ( + T7 55 ) T3 ) )
(or ( <= ( + T3 68 )  ( + T7 55 ) ) ( <= ( + T7 59 )( + T3 9 ) ) )
(or ( <= ( + T3 147 )  ( + T7 59 ) ) ( <= ( + T7 159 )( + T3 68 ) ) )
(or ( <= ( + T3 208 )  ( + T7 159 ) ) ( <= ( + T7 216 )( + T3 147 ) ) )
(or ( <= ( + T3 210 )  ( + T7 216 ) ) ( <= ( + T7 293 )( + T3 208 ) ) )
(or ( <= ( + T3 232 )  ( + T7 293 ) ) ( <= ( + T7 353 )( + T3 210 ) ) )
(or ( <= ( + T3 293 )  ( + T7 353 ) ) ( <= ( + T7 374 )( + T3 232 ) ) )
(or ( <= ( + T3 306 )  ( + T7 374 ) ) ( <= ( + T7 470 )( + T3 293 ) ) )
(or ( <= ( + T3 9 ) T8 ) ( <= ( + T8 14 ) T3 ) )
(or ( <= ( + T3 68 )  ( + T8 14 ) ) ( <= ( + T8 15 )( + T3 9 ) ) )
(or ( <= ( + T3 147 )  ( + T8 15 ) ) ( <= ( + T8 106 )( + T3 68 ) ) )
(or ( <= ( + T3 208 )  ( + T8 106 ) ) ( <= ( + T8 152 )( + T3 147 ) ) )
(or ( <= ( + T3 210 )  ( + T8 152 ) ) ( <= ( + T8 228 )( + T3 208 ) ) )
(or ( <= ( + T3 232 )  ( + T8 228 ) ) ( <= ( + T8 299 )( + T3 210 ) ) )
(or ( <= ( + T3 293 )  ( + T8 299 ) ) ( <= ( + T8 388 )( + T3 232 ) ) )
(or ( <= ( + T3 306 )  ( + T8 388 ) ) ( <= ( + T8 453 )( + T3 293 ) ) )
(or ( <= ( + T3 9 ) T9 ) ( <= ( + T9 67 ) T3 ) )
(or ( <= ( + T3 68 )  ( + T9 67 ) ) ( <= ( + T9 83 )( + T3 9 ) ) )
(or ( <= ( + T3 147 )  ( + T9 83 ) ) ( <= ( + T9 103 )( + T3 68 ) ) )
(or ( <= ( + T3 208 )  ( + T9 103 ) ) ( <= ( + T9 151 )( + T3 147 ) ) )
(or ( <= ( + T3 210 )  ( + T9 151 ) ) ( <= ( + T9 179 )( + T3 208 ) ) )
(or ( <= ( + T3 232 )  ( + T9 179 ) ) ( <= ( + T9 209 )( + T3 210 ) ) )
(or ( <= ( + T3 293 )  ( + T9 209 ) ) ( <= ( + T9 256 )( + T3 232 ) ) )
(or ( <= ( + T3 306 )  ( + T9 256 ) ) ( <= ( + T9 271 )( + T3 293 ) ) )
(or ( <= ( + T3 9 ) T10 ) ( <= ( + T10 11 ) T3 ) )
(or ( <= ( + T3 68 )  ( + T10 11 ) ) ( <= ( + T10 52 )( + T3 9 ) ) )
(or ( <= ( + T3 147 )  ( + T10 52 ) ) ( <= ( + T10 152 )( + T3 68 ) ) )
(or ( <= ( + T3 208 )  ( + T10 152 ) ) ( <= ( + T10 242 )( + T3 147 ) ) )
(or ( <= ( + T3 210 )  ( + T10 242 ) ) ( <= ( + T10 280 )( + T3 208 ) ) )
(or ( <= ( + T3 232 )  ( + T10 280 ) ) ( <= ( + T10 305 )( + T3 210 ) ) )
(or ( <= ( + T3 293 )  ( + T10 305 ) ) ( <= ( + T10 334 )( + T3 232 ) ) )
(or ( <= ( + T3 306 )  ( + T10 334 ) ) ( <= ( + T10 426 )( + T3 293 ) ) )
(or ( <= ( + T4 20 ) T5 ) ( <= ( + T5 89 ) T4 ) )
(or ( <= ( + T4 23 )  ( + T5 89 ) ) ( <= ( + T5 134 )( + T4 20 ) ) )
(or ( <= ( + T4 104 )  ( + T5 134 ) ) ( <= ( + T5 210 )( + T4 23 ) ) )
(or ( <= ( + T4 200 )  ( + T5 210 ) ) ( <= ( + T5 214 )( + T4 104 ) ) )
(or ( <= ( + T4 280 )  ( + T5 214 ) ) ( <= ( + T5 296 )( + T4 200 ) ) )
(or ( <= ( + T4 304 )  ( + T5 296 ) ) ( <= ( + T5 309 )( + T4 280 ) ) )
(or ( <= ( + T4 385 )  ( + T5 309 ) ) ( <= ( + T5 367 )( + T4 304 ) ) )
(or ( <= ( + T4 429 )  ( + T5 367 ) ) ( <= ( + T5 414 )( + T4 385 ) ) )
(or ( <= ( + T4 20 ) T6 ) ( <= ( + T6 35 ) T4 ) )
(or ( <= ( + T4 23 )  ( + T6 35 ) ) ( <= ( + T6 117 )( + T4 20 ) ) )
(or ( <= ( + T4 104 )  ( + T6 117 ) ) ( <= ( + T6 212 )( + T4 23 ) ) )
(or ( <= ( + T4 200 )  ( + T6 212 ) ) ( <= ( + T6 246 )( + T4 104 ) ) )
(or ( <= ( + T4 280 )  ( + T6 246 ) ) ( <= ( + T6 325 )( + T4 200 ) ) )
(or ( <= ( + T4 304 )  ( + T6 325 ) ) ( <= ( + T6 370 )( + T4 280 ) ) )
(or ( <= ( + T4 385 )  ( + T6 370 ) ) ( <= ( + T6 396 )( + T4 304 ) ) )
(or ( <= ( + T4 429 )  ( + T6 396 ) ) ( <= ( + T6 484 )( + T4 385 ) ) )
(or ( <= ( + T4 20 ) T7 ) ( <= ( + T7 55 ) T4 ) )
(or ( <= ( + T4 23 )  ( + T7 55 ) ) ( <= ( + T7 59 )( + T4 20 ) ) )
(or ( <= ( + T4 104 )  ( + T7 59 ) ) ( <= ( + T7 159 )( + T4 23 ) ) )
(or ( <= ( + T4 200 )  ( + T7 159 ) ) ( <= ( + T7 216 )( + T4 104 ) ) )
(or ( <= ( + T4 280 )  ( + T7 216 ) ) ( <= ( + T7 293 )( + T4 200 ) ) )
(or ( <= ( + T4 304 )  ( + T7 293 ) ) ( <= ( + T7 353 )( + T4 280 ) ) )
(or ( <= ( + T4 385 )  ( + T7 353 ) ) ( <= ( + T7 374 )( + T4 304 ) ) )
(or ( <= ( + T4 429 )  ( + T7 374 ) ) ( <= ( + T7 470 )( + T4 385 ) ) )
(or ( <= ( + T4 20 ) T8 ) ( <= ( + T8 14 ) T4 ) )
(or ( <= ( + T4 23 )  ( + T8 14 ) ) ( <= ( + T8 15 )( + T4 20 ) ) )
(or ( <= ( + T4 104 )  ( + T8 15 ) ) ( <= ( + T8 106 )( + T4 23 ) ) )
(or ( <= ( + T4 200 )  ( + T8 106 ) ) ( <= ( + T8 152 )( + T4 104 ) ) )
(or ( <= ( + T4 280 )  ( + T8 152 ) ) ( <= ( + T8 228 )( + T4 200 ) ) )
(or ( <= ( + T4 304 )  ( + T8 228 ) ) ( <= ( + T8 299 )( + T4 280 ) ) )
(or ( <= ( + T4 385 )  ( + T8 299 ) ) ( <= ( + T8 388 )( + T4 304 ) ) )
(or ( <= ( + T4 429 )  ( + T8 388 ) ) ( <= ( + T8 453 )( + T4 385 ) ) )
(or ( <= ( + T4 20 ) T9 ) ( <= ( + T9 67 ) T4 ) )
(or ( <= ( + T4 23 )  ( + T9 67 ) ) ( <= ( + T9 83 )( + T4 20 ) ) )
(or ( <= ( + T4 104 )  ( + T9 83 ) ) ( <= ( + T9 103 )( + T4 23 ) ) )
(or ( <= ( + T4 200 )  ( + T9 103 ) ) ( <= ( + T9 151 )( + T4 104 ) ) )
(or ( <= ( + T4 280 )  ( + T9 151 ) ) ( <= ( + T9 179 )( + T4 200 ) ) )
(or ( <= ( + T4 304 )  ( + T9 179 ) ) ( <= ( + T9 209 )( + T4 280 ) ) )
(or ( <= ( + T4 385 )  ( + T9 209 ) ) ( <= ( + T9 256 )( + T4 304 ) ) )
(or ( <= ( + T4 429 )  ( + T9 256 ) ) ( <= ( + T9 271 )( + T4 385 ) ) )
(or ( <= ( + T4 20 ) T10 ) ( <= ( + T10 11 ) T4 ) )
(or ( <= ( + T4 23 )  ( + T10 11 ) ) ( <= ( + T10 52 )( + T4 20 ) ) )
(or ( <= ( + T4 104 )  ( + T10 52 ) ) ( <= ( + T10 152 )( + T4 23 ) ) )
(or ( <= ( + T4 200 )  ( + T10 152 ) ) ( <= ( + T10 242 )( + T4 104 ) ) )
(or ( <= ( + T4 280 )  ( + T10 242 ) ) ( <= ( + T10 280 )( + T4 200 ) ) )
(or ( <= ( + T4 304 )  ( + T10 280 ) ) ( <= ( + T10 305 )( + T4 280 ) ) )
(or ( <= ( + T4 385 )  ( + T10 305 ) ) ( <= ( + T10 334 )( + T4 304 ) ) )
(or ( <= ( + T4 429 )  ( + T10 334 ) ) ( <= ( + T10 426 )( + T4 385 ) ) )
(or ( <= ( + T5 89 ) T6 ) ( <= ( + T6 35 ) T5 ) )
(or ( <= ( + T5 134 )  ( + T6 35 ) ) ( <= ( + T6 117 )( + T5 89 ) ) )
(or ( <= ( + T5 210 )  ( + T6 117 ) ) ( <= ( + T6 212 )( + T5 134 ) ) )
(or ( <= ( + T5 214 )  ( + T6 212 ) ) ( <= ( + T6 246 )( + T5 210 ) ) )
(or ( <= ( + T5 296 )  ( + T6 246 ) ) ( <= ( + T6 325 )( + T5 214 ) ) )
(or ( <= ( + T5 309 )  ( + T6 325 ) ) ( <= ( + T6 370 )( + T5 296 ) ) )
(or ( <= ( + T5 367 )  ( + T6 370 ) ) ( <= ( + T6 396 )( + T5 309 ) ) )
(or ( <= ( + T5 414 )  ( + T6 396 ) ) ( <= ( + T6 484 )( + T5 367 ) ) )
(or ( <= ( + T5 89 ) T7 ) ( <= ( + T7 55 ) T5 ) )
(or ( <= ( + T5 134 )  ( + T7 55 ) ) ( <= ( + T7 59 )( + T5 89 ) ) )
(or ( <= ( + T5 210 )  ( + T7 59 ) ) ( <= ( + T7 159 )( + T5 134 ) ) )
(or ( <= ( + T5 214 )  ( + T7 159 ) ) ( <= ( + T7 216 )( + T5 210 ) ) )
(or ( <= ( + T5 296 )  ( + T7 216 ) ) ( <= ( + T7 293 )( + T5 214 ) ) )
(or ( <= ( + T5 309 )  ( + T7 293 ) ) ( <= ( + T7 353 )( + T5 296 ) ) )
(or ( <= ( + T5 367 )  ( + T7 353 ) ) ( <= ( + T7 374 )( + T5 309 ) ) )
(or ( <= ( + T5 414 )  ( + T7 374 ) ) ( <= ( + T7 470 )( + T5 367 ) ) )
(or ( <= ( + T5 89 ) T8 ) ( <= ( + T8 14 ) T5 ) )
(or ( <= ( + T5 134 )  ( + T8 14 ) ) ( <= ( + T8 15 )( + T5 89 ) ) )
(or ( <= ( + T5 210 )  ( + T8 15 ) ) ( <= ( + T8 106 )( + T5 134 ) ) )
(or ( <= ( + T5 214 )  ( + T8 106 ) ) ( <= ( + T8 152 )( + T5 210 ) ) )
(or ( <= ( + T5 296 )  ( + T8 152 ) ) ( <= ( + T8 228 )( + T5 214 ) ) )
(or ( <= ( + T5 309 )  ( + T8 228 ) ) ( <= ( + T8 299 )( + T5 296 ) ) )
(or ( <= ( + T5 367 )  ( + T8 299 ) ) ( <= ( + T8 388 )( + T5 309 ) ) )
(or ( <= ( + T5 414 )  ( + T8 388 ) ) ( <= ( + T8 453 )( + T5 367 ) ) )
(or ( <= ( + T5 89 ) T9 ) ( <= ( + T9 67 ) T5 ) )
(or ( <= ( + T5 134 )  ( + T9 67 ) ) ( <= ( + T9 83 )( + T5 89 ) ) )
(or ( <= ( + T5 210 )  ( + T9 83 ) ) ( <= ( + T9 103 )( + T5 134 ) ) )
(or ( <= ( + T5 214 )  ( + T9 103 ) ) ( <= ( + T9 151 )( + T5 210 ) ) )
(or ( <= ( + T5 296 )  ( + T9 151 ) ) ( <= ( + T9 179 )( + T5 214 ) ) )
(or ( <= ( + T5 309 )  ( + T9 179 ) ) ( <= ( + T9 209 )( + T5 296 ) ) )
(or ( <= ( + T5 367 )  ( + T9 209 ) ) ( <= ( + T9 256 )( + T5 309 ) ) )
(or ( <= ( + T5 414 )  ( + T9 256 ) ) ( <= ( + T9 271 )( + T5 367 ) ) )
(or ( <= ( + T5 89 ) T10 ) ( <= ( + T10 11 ) T5 ) )
(or ( <= ( + T5 134 )  ( + T10 11 ) ) ( <= ( + T10 52 )( + T5 89 ) ) )
(or ( <= ( + T5 210 )  ( + T10 52 ) ) ( <= ( + T10 152 )( + T5 134 ) ) )
(or ( <= ( + T5 214 )  ( + T10 152 ) ) ( <= ( + T10 242 )( + T5 210 ) ) )
(or ( <= ( + T5 296 )  ( + T10 242 ) ) ( <= ( + T10 280 )( + T5 214 ) ) )
(or ( <= ( + T5 309 )  ( + T10 280 ) ) ( <= ( + T10 305 )( + T5 296 ) ) )
(or ( <= ( + T5 367 )  ( + T10 305 ) ) ( <= ( + T10 334 )( + T5 309 ) ) )
(or ( <= ( + T5 414 )  ( + T10 334 ) ) ( <= ( + T10 426 )( + T5 367 ) ) )
(or ( <= ( + T6 35 ) T7 ) ( <= ( + T7 55 ) T6 ) )
(or ( <= ( + T6 117 )  ( + T7 55 ) ) ( <= ( + T7 59 )( + T6 35 ) ) )
(or ( <= ( + T6 212 )  ( + T7 59 ) ) ( <= ( + T7 159 )( + T6 117 ) ) )
(or ( <= ( + T6 246 )  ( + T7 159 ) ) ( <= ( + T7 216 )( + T6 212 ) ) )
(or ( <= ( + T6 325 )  ( + T7 216 ) ) ( <= ( + T7 293 )( + T6 246 ) ) )
(or ( <= ( + T6 370 )  ( + T7 293 ) ) ( <= ( + T7 353 )( + T6 325 ) ) )
(or ( <= ( + T6 396 )  ( + T7 353 ) ) ( <= ( + T7 374 )( + T6 370 ) ) )
(or ( <= ( + T6 484 )  ( + T7 374 ) ) ( <= ( + T7 470 )( + T6 396 ) ) )
(or ( <= ( + T6 35 ) T8 ) ( <= ( + T8 14 ) T6 ) )
(or ( <= ( + T6 117 )  ( + T8 14 ) ) ( <= ( + T8 15 )( + T6 35 ) ) )
(or ( <= ( + T6 212 )  ( + T8 15 ) ) ( <= ( + T8 106 )( + T6 117 ) ) )
(or ( <= ( + T6 246 )  ( + T8 106 ) ) ( <= ( + T8 152 )( + T6 212 ) ) )
(or ( <= ( + T6 325 )  ( + T8 152 ) ) ( <= ( + T8 228 )( + T6 246 ) ) )
(or ( <= ( + T6 370 )  ( + T8 228 ) ) ( <= ( + T8 299 )( + T6 325 ) ) )
(or ( <= ( + T6 396 )  ( + T8 299 ) ) ( <= ( + T8 388 )( + T6 370 ) ) )
(or ( <= ( + T6 484 )  ( + T8 388 ) ) ( <= ( + T8 453 )( + T6 396 ) ) )
(or ( <= ( + T6 35 ) T9 ) ( <= ( + T9 67 ) T6 ) )
(or ( <= ( + T6 117 )  ( + T9 67 ) ) ( <= ( + T9 83 )( + T6 35 ) ) )
(or ( <= ( + T6 212 )  ( + T9 83 ) ) ( <= ( + T9 103 )( + T6 117 ) ) )
(or ( <= ( + T6 246 )  ( + T9 103 ) ) ( <= ( + T9 151 )( + T6 212 ) ) )
(or ( <= ( + T6 325 )  ( + T9 151 ) ) ( <= ( + T9 179 )( + T6 246 ) ) )
(or ( <= ( + T6 370 )  ( + T9 179 ) ) ( <= ( + T9 209 )( + T6 325 ) ) )
(or ( <= ( + T6 396 )  ( + T9 209 ) ) ( <= ( + T9 256 )( + T6 370 ) ) )
(or ( <= ( + T6 484 )  ( + T9 256 ) ) ( <= ( + T9 271 )( + T6 396 ) ) )
(or ( <= ( + T6 35 ) T10 ) ( <= ( + T10 11 ) T6 ) )
(or ( <= ( + T6 117 )  ( + T10 11 ) ) ( <= ( + T10 52 )( + T6 35 ) ) )
(or ( <= ( + T6 212 )  ( + T10 52 ) ) ( <= ( + T10 152 )( + T6 117 ) ) )
(or ( <= ( + T6 246 )  ( + T10 152 ) ) ( <= ( + T10 242 )( + T6 212 ) ) )
(or ( <= ( + T6 325 )  ( + T10 242 ) ) ( <= ( + T10 280 )( + T6 246 ) ) )
(or ( <= ( + T6 370 )  ( + T10 280 ) ) ( <= ( + T10 305 )( + T6 325 ) ) )
(or ( <= ( + T6 396 )  ( + T10 305 ) ) ( <= ( + T10 334 )( + T6 370 ) ) )
(or ( <= ( + T6 484 )  ( + T10 334 ) ) ( <= ( + T10 426 )( + T6 396 ) ) )
(or ( <= ( + T7 55 ) T8 ) ( <= ( + T8 14 ) T7 ) )
(or ( <= ( + T7 59 )  ( + T8 14 ) ) ( <= ( + T8 15 )( + T7 55 ) ) )
(or ( <= ( + T7 159 )  ( + T8 15 ) ) ( <= ( + T8 106 )( + T7 59 ) ) )
(or ( <= ( + T7 216 )  ( + T8 106 ) ) ( <= ( + T8 152 )( + T7 159 ) ) )
(or ( <= ( + T7 293 )  ( + T8 152 ) ) ( <= ( + T8 228 )( + T7 216 ) ) )
(or ( <= ( + T7 353 )  ( + T8 228 ) ) ( <= ( + T8 299 )( + T7 293 ) ) )
(or ( <= ( + T7 374 )  ( + T8 299 ) ) ( <= ( + T8 388 )( + T7 353 ) ) )
(or ( <= ( + T7 470 )  ( + T8 388 ) ) ( <= ( + T8 453 )( + T7 374 ) ) )
(or ( <= ( + T7 55 ) T9 ) ( <= ( + T9 67 ) T7 ) )
(or ( <= ( + T7 59 )  ( + T9 67 ) ) ( <= ( + T9 83 )( + T7 55 ) ) )
(or ( <= ( + T7 159 )  ( + T9 83 ) ) ( <= ( + T9 103 )( + T7 59 ) ) )
(or ( <= ( + T7 216 )  ( + T9 103 ) ) ( <= ( + T9 151 )( + T7 159 ) ) )
(or ( <= ( + T7 293 )  ( + T9 151 ) ) ( <= ( + T9 179 )( + T7 216 ) ) )
(or ( <= ( + T7 353 )  ( + T9 179 ) ) ( <= ( + T9 209 )( + T7 293 ) ) )
(or ( <= ( + T7 374 )  ( + T9 209 ) ) ( <= ( + T9 256 )( + T7 353 ) ) )
(or ( <= ( + T7 470 )  ( + T9 256 ) ) ( <= ( + T9 271 )( + T7 374 ) ) )
(or ( <= ( + T7 55 ) T10 ) ( <= ( + T10 11 ) T7 ) )
(or ( <= ( + T7 59 )  ( + T10 11 ) ) ( <= ( + T10 52 )( + T7 55 ) ) )
(or ( <= ( + T7 159 )  ( + T10 52 ) ) ( <= ( + T10 152 )( + T7 59 ) ) )
(or ( <= ( + T7 216 )  ( + T10 152 ) ) ( <= ( + T10 242 )( + T7 159 ) ) )
(or ( <= ( + T7 293 )  ( + T10 242 ) ) ( <= ( + T10 280 )( + T7 216 ) ) )
(or ( <= ( + T7 353 )  ( + T10 280 ) ) ( <= ( + T10 305 )( + T7 293 ) ) )
(or ( <= ( + T7 374 )  ( + T10 305 ) ) ( <= ( + T10 334 )( + T7 353 ) ) )
(or ( <= ( + T7 470 )  ( + T10 334 ) ) ( <= ( + T10 426 )( + T7 374 ) ) )
(or ( <= ( + T8 14 ) T9 ) ( <= ( + T9 67 ) T8 ) )
(or ( <= ( + T8 15 )  ( + T9 67 ) ) ( <= ( + T9 83 )( + T8 14 ) ) )
(or ( <= ( + T8 106 )  ( + T9 83 ) ) ( <= ( + T9 103 )( + T8 15 ) ) )
(or ( <= ( + T8 152 )  ( + T9 103 ) ) ( <= ( + T9 151 )( + T8 106 ) ) )
(or ( <= ( + T8 228 )  ( + T9 151 ) ) ( <= ( + T9 179 )( + T8 152 ) ) )
(or ( <= ( + T8 299 )  ( + T9 179 ) ) ( <= ( + T9 209 )( + T8 228 ) ) )
(or ( <= ( + T8 388 )  ( + T9 209 ) ) ( <= ( + T9 256 )( + T8 299 ) ) )
(or ( <= ( + T8 453 )  ( + T9 256 ) ) ( <= ( + T9 271 )( + T8 388 ) ) )
(or ( <= ( + T8 14 ) T10 ) ( <= ( + T10 11 ) T8 ) )
(or ( <= ( + T8 15 )  ( + T10 11 ) ) ( <= ( + T10 52 )( + T8 14 ) ) )
(or ( <= ( + T8 106 )  ( + T10 52 ) ) ( <= ( + T10 152 )( + T8 15 ) ) )
(or ( <= ( + T8 152 )  ( + T10 152 ) ) ( <= ( + T10 242 )( + T8 106 ) ) )
(or ( <= ( + T8 228 )  ( + T10 242 ) ) ( <= ( + T10 280 )( + T8 152 ) ) )
(or ( <= ( + T8 299 )  ( + T10 280 ) ) ( <= ( + T10 305 )( + T8 228 ) ) )
(or ( <= ( + T8 388 )  ( + T10 305 ) ) ( <= ( + T10 334 )( + T8 299 ) ) )
(or ( <= ( + T8 453 )  ( + T10 334 ) ) ( <= ( + T10 426 )( + T8 388 ) ) )
(or ( <= ( + T9 67 ) T10 ) ( <= ( + T10 11 ) T9 ) )
(or ( <= ( + T9 83 )  ( + T10 11 ) ) ( <= ( + T10 52 )( + T9 67 ) ) )
(or ( <= ( + T9 103 )  ( + T10 52 ) ) ( <= ( + T10 152 )( + T9 83 ) ) )
(or ( <= ( + T9 151 )  ( + T10 152 ) ) ( <= ( + T10 242 )( + T9 103 ) ) )
(or ( <= ( + T9 179 )  ( + T10 242 ) ) ( <= ( + T10 280 )( + T9 151 ) ) )
(or ( <= ( + T9 209 )  ( + T10 280 ) ) ( <= ( + T10 305 )( + T9 179 ) ) )
(or ( <= ( + T9 256 )  ( + T10 305 ) ) ( <= ( + T10 334 )( + T9 209 ) ) )
(or ( <= ( + T9 271 )  ( + T10 334 ) ) ( <= ( + T10 426 )( + T9 256 ) ) )
( <= ( + T1 470 ) Z)
( <= ( + T2 496 ) Z)
( <= ( + T3 306 ) Z)
( <= ( + T4 429 ) Z)
( <= ( + T5 414 ) Z)
( <= ( + T6 484 ) Z)
( <= ( + T7 470 ) Z)
( <= ( + T8 453 ) Z)
( <= ( + T9 271 ) Z)
( <= ( + T10 426 ) Z)
( >= T1 0 )
( >= T2 0 )
( >= T3 0 )
( >= T4 0 )
( >= T5 0 )
( >= T6 0 )
( >= T7 0 )
( >= T8 0 )
( >= T9 0 )
( >= T10 0 )
) )
)(=> $phi $goal))))